# Description:
# Historical boundary flows from Delta
SOURCE_FLOW
NAME     NODE SIGN FILLIN FILE                  PATH                                                        
ccc       206   -1 last   ${BNDRYINPUT}         /FILL+CHAN/CHCCC006/FLOW-DIVERSION//1HOUR/${HISTFLOWVERSION}/ 
cccoldr    80   -1 last   ${BNDRYINPUT}         /FILL+CHAN/ROLD034/FLOW-EXPORT//1HOUR/${HISTFLOWVERSION}/     
cccmidr	  191   -1 Last   ${BNDRYINPUT}         /FILL+CHAN/CHVCT001/FLOW-EXPORT//1HOUR/${HISTFLOWVERSION}/
cvp       181   -1 last   ${BNDRYINPUT}         /FILL+CHAN/CHDMC004/FLOW-EXPORT//1HOUR/${HISTFLOWVERSION}/    
stockton   15   -1 last   ${STOCKTON_FLOW_FILE} ${STOCKTON_EFF_FLOW}                                         
END



SOURCE_FLOW_RESERVOIR
NAME RES_NAME      SIGN FILLIN FILE          PATH                                                     
swp  clifton_court   -1 last   ${BNDRYINPUT} /FILL+CHAN/CHSWP003/FLOW-EXPORT//1HOUR/${HISTFLOWVERSION}/ 
END


